0
Node Left Objective IInf Best_Integer Best_Bound ItCnt Gap
0+ 0 nan nan 3416.1452 -341.6145 nan 110.00%
0+ 0 nan nan 70.5986 -341.6145 nan 583.88%
0 0 35.2235 6 70.5986 35.2235 90 50.11%
0 2 35.2235 6 70.5986 35.2235 90 50.11%
CPXPARAM_MIP_Cuts_Implied 0
1
Node Left Objective IInf Best_Integer Best_Bound ItCnt Gap
0+ 0 nan nan 3561.5109 -356.1511 nan 110.00%
0+ 0 nan nan -2.0853 -356.1511 nan ---
0 0 -37.4604 6 -2.0853 -37.4604 102 ---
0 2 -37.4604 6 -2.0853 -37.4604 102 ---
CPXPARAM_MIP_Cuts_Implied 0
2
Node Left Objective IInf Best_Integer Best_Bound ItCnt Gap
0+ 0 nan nan 4398.5936 -439.8594 nan 110.00%
0+ 0 nan nan 29.8310 -439.8594 nan ---
0 0 25.3990 4 29.8310 25.3990 102 14.86%
0+ 0 nan nan 29.6652 25.3990 nan 14.38%
0 2 25.3990 4 29.6652 25.3990 102 14.38%
CPXPARAM_MIP_Cuts_Implied 0
3
Node Left Objective IInf Best_Integer Best_Bound ItCnt Gap
0+ 0 nan nan 3026.1120 -302.6112 nan 110.00%
0+ 0 nan nan -16.9664 -302.6112 nan ---
0 0 -21.3985 2 -16.9664 -21.3985 112 26.12%
0+ 0 nan nan -17.7515 -21.3985 nan 20.54%
0 2 -21.3985 2 -17.7515 -21.3985 112 20.54%
CPXPARAM_MIP_Cuts_Implied 0
4
Node Left Objective IInf Best_Integer Best_Bound ItCnt Gap
0+ 0 nan nan 3445.8727 -344.5873 nan 110.00%
0+ 0 nan nan 61.1938 -344.5873 nan 663.11%
0 0 45.3867 8 61.1938 45.3867 98 25.83%
0 2 45.3867 8 61.1938 45.3867 98 25.83%
CPXPARAM_MIP_Cuts_Implied 0
5
Node Left Objective IInf Best_Integer Best_Bound ItCnt Gap
0+ 0 nan nan 3859.4816 -385.9482 nan 110.00%
0+ 0 nan nan -20.1319 -385.9482 nan ---
0 0 -35.9390 9 -20.1319 -35.9390 105 78.52%
0 2 -35.9390 9 -20.1319 -35.9390 105 78.52%
CPXPARAM_MIP_Cuts_Implied 0
6
Node Left Objective IInf Best_Integer Best_Bound ItCnt Gap
0+ 0 nan nan 3456.7371 -345.6737 nan 110.00%
0+ 0 nan nan 47.1585 -345.6737 nan 833.00%
0 0 45.2780 5 47.1585 45.2780 112 3.99%
0+ 0 nan nan 46.6268 45.2780 nan 2.89%
0+ 0 nan nan 45.6605 45.2780 nan 0.84%
0+ 0 nan nan 45.3506 45.2780 nan 0.16%
0 2 45.2780 2 45.3506 45.2780 112 0.16%
CPXPARAM_MIP_Cuts_Implied 0
7
Node Left Objective IInf Best_Integer Best_Bound ItCnt Gap
0+ 0 nan nan 3747.8425 -374.7843 nan 110.00%
0+ 0 nan nan -30.7094 -374.7843 nan ---
0 0 -32.5899 4 -30.7094 -32.5899 99 6.12%
0+ 0 nan nan -31.7786 -32.5899 nan 2.55%
0+ 0 nan nan -31.9862 -32.5899 nan 1.89%
0 2 -32.5899 4 -31.9862 -32.5899 99 1.89%
CPXPARAM_MIP_Cuts_Implied 0
8
Node Left Objective IInf Best_Integer Best_Bound ItCnt Gap
0+ 0 nan nan 4064.8026 -406.4803 nan 110.00%
0+ 0 nan nan 73.7169 -406.4803 nan 651.41%
0 0 57.5230 6 73.7169 57.5230 88 21.97%
0+ 0 nan nan 72.3065 57.5230 nan 20.45%
0+ 0 nan nan 71.5554 57.5230 nan 19.61%
0 2 57.5230 6 71.5554 57.5230 88 19.61%
CPXPARAM_MIP_Cuts_Implied 0
9
Node Left Objective IInf Best_Integer Best_Bound ItCnt Gap
0+ 0 nan nan 3914.8782 -391.4878 nan 110.00%
0+ 0 nan nan -3.0814 -391.4878 nan ---
0 0 -19.2753 6 -3.0814 -19.2753 94 525.54%
0+ 0 nan nan -4.5407 -19.2753 nan 324.50%
0 2 -19.2753 6 -4.5407 -19.2753 94 324.50%
CPXPARAM_MIP_Cuts_Implied 0
10
Node Left Objective IInf Best_Integer Best_Bound ItCnt Gap
0+ 0 nan nan 5437.4645 -543.7465 nan 110.00%
0+ 0 nan nan 44.6359 -543.7465 nan ---
0 0 43.7964 4 44.6359 43.7964 101 1.88%
0 2 43.7964 4 44.6359 43.7964 101 1.88%
CPXPARAM_MIP_Cuts_Implied 0
11
Node Left Objective IInf Best_Integer Best_Bound ItCnt Gap
0+ 0 nan nan 4494.1418 -449.4142 nan 110.00%
0+ 0 nan nan -35.8137 -449.4142 nan ---
0 0 -36.6532 2 -35.8137 -36.6532 102 2.34%
0 2 -36.6532 2 -35.8137 -36.6532 102 2.34%
CPXPARAM_MIP_Cuts_Implied 0
12
Node Left Objective IInf Best_Integer Best_Bound ItCnt Gap
0+ 0 nan nan 4258.0012 -425.8001 nan 110.00%
0+ 0 nan nan 56.1876 -425.8001 nan 857.82%
0 0 36.5391 10 56.1876 36.5391 103 34.97%
0 2 36.5391 8 56.1876 36.5391 103 34.97%
CPXPARAM_MIP_Cuts_Implied 0
13
Node Left Objective IInf Best_Integer Best_Bound ItCnt Gap
0+ 0 nan nan 3742.2366 -374.2237 nan 110.00%
0+ 0 nan nan -13.4995 -374.2237 nan ---
0 0 -33.1480 9 -13.4995 -33.1480 92 145.55%
0 2 -33.1480 9 -13.4995 -33.1480 92 145.55%
CPXPARAM_MIP_Cuts_Implied 0
14
Node Left Objective IInf Best_Integer Best_Bound ItCnt Gap
0+ 0 nan nan 4547.8366 -454.7837 nan 110.00%
0+ 0 nan nan 37.3980 -454.7837 nan ---
0 0 33.6408 6 37.3980 33.6408 101 10.05%
0 2 33.6408 6 37.3980 33.6408 101 10.05%
CPXPARAM_MIP_Cuts_Implied 0
15
Node Left Objective IInf Best_Integer Best_Bound ItCnt Gap
0+ 0 nan nan 4058.6248 -405.8625 nan 110.00%
0+ 0 nan nan -38.8823 -405.8625 nan 943.82%
0 0 -42.6396 4 -38.8823 -42.6396 99 9.66%
0 2 -42.6396 4 -38.8823 -42.6396 99 9.66%
CPXPARAM_MIP_Cuts_Implied 0
16
Node Left Objective IInf Best_Integer Best_Bound ItCnt Gap
0+ 0 nan nan 4374.4391 -437.4439 nan 110.00%
0+ 0 nan nan 63.6896 -437.4439 nan 786.84%
0 0 42.8442 6 63.6896 42.8442 92 32.73%
0+ 0 nan nan 51.8824 42.8442 nan 17.42%
0 2 42.8442 6 51.8824 42.8442 92 17.42%
CPXPARAM_MIP_Cuts_Implied 0
17
Node Left Objective IInf Best_Integer Best_Bound ItCnt Gap
0+ 0 nan nan 3327.9222 -332.7922 nan 110.00%
0+ 0 nan nan 7.5964 -332.7922 nan ---
0 0 -13.2491 8 7.5964 -13.2491 85 274.41%
0+ 0 nan nan -4.6041 -13.2491 nan 187.77%
0 2 -13.2491 8 -4.6041 -13.2491 85 187.77%
CPXPARAM_MIP_Cuts_Implied 0
18
Node Left Objective IInf Best_Integer Best_Bound ItCnt Gap
0+ 0 nan nan 3764.3804 -376.4380 nan 110.00%
0+ 0 nan nan 51.9989 -376.4380 nan 823.93%
0 0 48.9448 2 51.9989 48.9448 90 5.87%
0+ 0 nan nan 48.9869 48.9448 nan 0.09%
0 2 48.9448 2 48.9869 48.9448 90 0.09%
CPXPARAM_MIP_Cuts_Implied 0
19
Node Left Objective IInf Best_Integer Best_Bound ItCnt Gap
0+ 0 nan nan 3802.5481 -380.2548 nan 110.00%
0+ 0 nan nan -24.4337 -380.2548 nan ---
0 0 -27.4879 4 -24.4337 -27.4879 91 12.50%
0+ 0 nan nan -27.2849 -27.4879 nan 0.74%
0 2 -27.4879 4 -27.2849 -27.4879 91 0.74%
CPXPARAM_MIP_Cuts_Implied 0
20
Node Left Objective IInf Best_Integer Best_Bound ItCnt Gap
0+ 0 nan nan 3023.0049 -302.3005 nan 110.00%
0+ 0 nan nan 38.6876 -302.3005 nan 881.39%
0 0 28.0444 8 38.6876 28.0444 110 27.51%
0+ 0 nan nan 38.3555 28.0444 nan 26.88%
0 2 28.0444 8 38.3555 28.0444 110 26.88%
CPXPARAM_MIP_Cuts_Implied 0
21
Node Left Objective IInf Best_Integer Best_Bound ItCnt Gap
0+ 0 nan nan 3066.6850 -306.6685 nan 110.00%
0+ 0 nan nan -23.0829 -306.6685 nan ---
0 0 -33.7261 13 -23.0829 -33.7261 120 46.11%
0 2 -33.7261 8 -23.0829 -33.7261 120 46.11%
CPXPARAM_MIP_Cuts_Implied 0
22
Node Left Objective IInf Best_Integer Best_Bound ItCnt Gap
0+ 0 nan nan 3115.9138 -311.5914 nan 110.00%
0+ 0 nan nan 28.6729 -311.5914 nan ---
0 0 27.1153 4 28.6729 27.1153 103 5.43%
0 2 27.1153 4 28.6729 27.1153 103 5.43%
CPXPARAM_MIP_Cuts_Implied 0
23
Node Left Objective IInf Best_Integer Best_Bound ItCnt Gap
0+ 0 nan nan 3219.7432 -321.9743 nan 110.00%
0+ 0 nan nan -36.7602 -321.9743 nan 775.88%
0 0 -38.3178 9 -36.7602 -38.3178 128 4.24%
0+ 0 nan nan -37.4968 -38.3178 nan 2.19%
0 2 -38.3178 7 -37.4968 -38.3178 128 2.19%
CPXPARAM_MIP_Cuts_Implied 0
24
Node Left Objective IInf Best_Integer Best_Bound ItCnt Gap
0+ 0 nan nan 3687.2890 -368.7289 nan 110.00%
0+ 0 nan nan 43.2506 -368.7289 nan 952.54%
0 0 31.9673 10 43.2506 31.9673 102 26.09%
0+ 0 nan nan 35.4872 31.9673 nan 9.92%
0 2 31.9673 6 35.4872 31.9673 102 9.92%
CPXPARAM_MIP_Cuts_Implied 0
25
Node Left Objective IInf Best_Integer Best_Bound ItCnt Gap
0+ 0 nan nan 3761.3434 -376.1343 nan 110.00%
0+ 0 nan nan -32.7168 -376.1343 nan ---
0 0 -44.0001 9 -32.7168 -44.0001 119 34.49%
0+ 0 nan nan -40.1187 -44.0001 nan 9.67%
0 2 -44.0001 9 -40.1187 -44.0001 119 9.67%
CPXPARAM_MIP_Cuts_Implied 0
26
Node Left Objective IInf Best_Integer Best_Bound ItCnt Gap
0+ 0 nan nan 3711.4466 -371.1447 nan 110.00%
0+ 0 nan nan 33.2793 -371.1447 nan ---
0 0 31.7258 2 33.2793 31.7258 133 4.67%
0+ 0 nan nan 33.1336 31.7258 nan 4.25%
0+ 0 nan nan 32.5097 31.7258 nan 2.41%
0+ 0 nan nan 32.1479 31.7258 nan 1.31%
0 2 31.7258 2 32.1479 31.7258 133 1.31%
CPXPARAM_MIP_Cuts_Implied 0
27
Node Left Objective IInf Best_Integer Best_Bound ItCnt Gap
0+ 0 nan nan 3421.5786 -342.1579 nan 110.00%
0 0 -33.8071 9 3421.5786 -33.8071 110 100.99%
0+ 0 nan nan -30.4260 -33.8071 nan 11.11%
0+ 0 nan nan -30.7947 -33.8071 nan 9.78%
0+ 0 nan nan -33.0003 -33.8071 nan 2.45%
0 2 -33.8071 7 -33.0003 -33.8071 110 2.45%
CPXPARAM_MIP_Cuts_Implied 0
28
Node Left Objective IInf Best_Integer Best_Bound ItCnt Gap
0+ 0 nan nan 4639.1808 -463.9181 nan 110.00%
0+ 0 nan nan 65.2464 -463.9181 nan 811.02%
0 0 58.0744 8 65.2464 58.0744 92 10.99%
0 2 58.0744 8 65.2464 58.0744 92 10.99%
CPXPARAM_MIP_Cuts_Implied 0
29
Node Left Objective IInf Best_Integer Best_Bound ItCnt Gap
0+ 0 nan nan 3694.7313 -369.4731 nan 110.00%
0+ 0 nan nan 0.7963 -369.4731 nan ---
0 0 -6.3757 11 0.7963 -6.3757 101 900.69%
0 2 -6.3757 8 0.7963 -6.3757 101 900.69%
CPXPARAM_MIP_Cuts_Implied 0
30
Node Left Objective IInf Best_Integer Best_Bound ItCnt Gap
0+ 0 nan nan 4002.5073 -400.2507 nan 110.00%
0+ 0 nan nan 65.9595 -400.2507 nan 706.81%
0 0 64.4411 2 65.9595 64.4411 95 2.30%
0+ 0 nan nan 65.3965 64.4411 nan 1.46%
0+ 0 nan nan 64.4435 64.4411 nan 0.00%
CPXPARAM_MIP_Cuts_Implied 0
31
Node Left Objective IInf Best_Integer Best_Bound ItCnt Gap
0+ 0 nan nan 4093.9107 -409.3911 nan 110.00%
0+ 0 nan nan -16.8328 -409.3911 nan ---
0 0 -18.3511 8 -16.8328 -18.3511 99 9.02%
0+ 0 nan nan -17.0665 -18.3511 nan 7.53%
0+ 0 nan nan -17.4979 -18.3511 nan 4.88%
0 2 -18.3511 8 -17.4979 -18.3511 99 4.88%
CPXPARAM_MIP_Cuts_Implied 0
32
Node Left Objective IInf Best_Integer Best_Bound ItCnt Gap
0+ 0 nan nan 2782.2146 -278.2215 nan 110.00%
0+ 0 nan nan 51.8003 -278.2215 nan 637.10%
0 0 40.6477 6 51.8003 40.6477 100 21.53%
0 2 40.6477 6 51.8003 40.6477 100 21.53%
CPXPARAM_MIP_Cuts_Implied 0
33
Node Left Objective IInf Best_Integer Best_Bound ItCnt Gap
0+ 0 nan nan 3349.6902 -334.9690 nan 110.00%
0+ 0 nan nan -20.8683 -334.9690 nan ---
0 0 -32.0209 8 -20.8683 -32.0209 98 53.44%
0 2 -32.0209 8 -20.8683 -32.0209 98 53.44%
CPXPARAM_MIP_Cuts_Implied 0
34
Node Left Objective IInf Best_Integer Best_Bound ItCnt Gap
0+ 0 nan nan 3811.0022 -381.1002 nan 110.00%
0+ 0 nan nan 40.8428 -381.1002 nan ---
0 0 30.3598 2 40.8428 30.3598 97 25.67%
0+ 0 nan nan 32.0719 30.3598 nan 5.34%
0+ 0 nan nan 30.4857 30.3598 nan 0.41%
0 2 30.3598 2 30.4857 30.3598 97 0.41%
CPXPARAM_MIP_Cuts_Implied 0
35
Node Left Objective IInf Best_Integer Best_Bound ItCnt Gap
0+ 0 nan nan 3356.6483 -335.6648 nan 110.00%
0+ 0 nan nan -21.7467 -335.6648 nan ---
0 0 -32.2296 2 -21.7467 -32.2296 127 48.21%
0+ 0 nan nan -30.5175 -32.2296 nan 5.61%
0+ 0 nan nan -32.0295 -32.2296 nan 0.62%
0 2 -32.2296 2 -32.0295 -32.2296 127 0.62%
CPXPARAM_MIP_Cuts_Implied 0
36
Node Left Objective IInf Best_Integer Best_Bound ItCnt Gap
0+ 0 nan nan 4588.3495 -458.8350 nan 110.00%
0+ 0 nan nan 49.9629 -458.8350 nan ---
0 0 35.1558 9 49.9629 35.1558 105 29.64%
0 2 35.1558 9 49.9629 35.1558 105 29.64%
CPXPARAM_MIP_Cuts_Implied 0
37
Node Left Objective IInf Best_Integer Best_Bound ItCnt Gap
0+ 0 nan nan 4450.7541 -445.0754 nan 110.00%
0+ 0 nan nan -37.6763 -445.0754 nan ---
0 0 -52.4834 11 -37.6763 -52.4834 108 39.30%
0 2 -52.4834 10 -37.6763 -52.4834 108 39.30%
CPXPARAM_MIP_Cuts_Implied 0
38
Node Left Objective IInf Best_Integer Best_Bound ItCnt Gap
0+ 0 nan nan 3824.8352 -382.4835 nan 110.00%
0 0 42.7909 4 3824.8352 42.7909 97 98.88%
0+ 0 nan nan 45.2604 42.7909 nan 5.46%
0+ 0 nan nan 43.2628 42.7909 nan 1.09%
0+ 0 nan nan 43.2412 42.7909 nan 1.04%
0 2 42.7909 4 43.2412 42.7909 97 1.04%
CPXPARAM_MIP_Cuts_Implied 0
39
Node Left Objective IInf Best_Integer Best_Bound ItCnt Gap
0+ 0 nan nan 4523.6595 -452.3660 nan 110.00%
0+ 0 nan nan -52.2183 -452.3660 nan 766.30%
0 0 -54.6705 7 -52.2183 -54.6705 107 4.70%
0 2 -54.6705 7 -52.2183 -54.6705 107 4.70%
CPXPARAM_MIP_Cuts_Implied 0
